p edge 1000 2462
e 1 657
e 1 699
e 1 930
e 2 958
e 3 754
e 3 829
e 3 923
e 4 584
e 4 676
e 4 720
e 4 788
e 4 799
e 4 838
e 4 891
e 4 983
e 6 545
e 6 625
e 6 651
e 6 744
e 6 799
e 6 831
e 6 970
e 7 517
e 7 554
e 7 606
e 7 726
e 7 878
e 8 587
e 8 591
e 8 695
e 8 746
e 8 846
e 9 546
e 9 860
e 10 525
e 10 799
e 10 804
e 10 809
e 10 906
e 11 545
e 11 574
e 11 752
e 11 817
e 11 864
e 12 553
e 12 622
e 12 699
e 12 723
e 12 739
e 12 787
e 12 792
e 12 884
e 12 914
e 13 522
e 13 525
e 13 544
e 14 538
e 14 591
e 14 677
e 14 683
e 14 842
e 14 966
e 15 586
e 15 736
e 15 825
e 15 948
e 16 506
e 16 518
e 16 658
e 16 922
e 17 764
e 17 829
e 17 900
e 18 519
e 18 653
e 18 676
e 18 738
e 18 1000
e 19 551
e 19 652
e 19 671
e 20 691
e 20 750
e 20 827
e 20 888
e 21 535
e 21 542
e 21 964
e 22 502
e 22 592
e 22 798
e 22 804
e 22 869
e 22 927
e 22 967
e 22 988
e 23 558
e 23 590
e 23 772
e 23 829
e 23 841
e 23 854
e 25 593
e 25 607
e 25 651
e 25 716
e 25 741
e 25 974
e 26 542
e 26 679
e 26 774
e 26 810
e 26 995
e 27 508
e 27 697
e 27 799
e 27 858
e 27 874
e 27 901
e 28 526
e 28 888
e 29 605
e 29 730
e 29 952
e 29 965
e 30 696
e 30 725
e 30 867
e 30 990
e 31 826
e 31 828
e 31 940
e 32 536
e 32 696
e 32 705
e 32 747
e 33 540
e 33 553
e 33 666
e 33 679
e 34 611
e 34 692
e 35 592
e 35 660
e 35 905
e 35 980
e 36 649
e 36 698
e 36 798
e 36 813
e 37 586
e 37 625
e 37 694
e 37 814
e 37 830
e 37 966
e 37 986
e 38 624
e 38 998
e 39 580
e 39 881
e 39 925
e 40 640
e 40 809
e 40 866
e 41 595
e 41 687
e 41 903
e 42 587
e 42 596
e 42 602
e 42 899
e 43 510
e 43 638
e 43 835
e 43 861
e 43 866
e 43 895
e 43 992
e 44 531
e 44 724
e 44 935
e 45 573
e 45 620
e 45 785
e 45 938
e 46 507
e 46 619
e 46 656
e 46 769
e 46 818
e 47 710
e 47 817
e 47 870
e 47 947
e 47 969
e 47 994
e 48 552
e 48 631
e 48 942
e 49 948
e 49 995
e 50 575
e 50 648
e 50 709
e 50 773
e 50 791
e 50 802
e 50 835
e 50 903
e 50 915
e 50 995
e 51 555
e 51 567
e 52 569
e 52 611
e 52 754
e 52 785
e 52 862
e 52 919
e 52 954
e 53 670
e 53 872
e 53 949
e 54 558
e 54 761
e 54 950
e 54 994
e 55 506
e 55 534
e 55 761
e 55 927
e 55 941
e 56 536
e 56 638
e 56 694
e 56 738
e 56 854
e 56 867
e 56 997
e 57 641
e 57 799
e 57 827
e 57 888
e 57 900
e 58 715
e 60 511
e 60 573
e 60 903
e 60 948
e 61 509
e 61 598
e 61 758
e 61 855
e 61 871
e 62 510
e 62 515
e 62 526
e 62 692
e 62 803
e 62 842
e 62 876
e 62 967
e 63 878
e 63 884
e 64 518
e 64 736
e 64 769
e 64 867
e 64 903
e 64 978
e 65 663
e 65 698
e 65 764
e 65 803
e 65 811
e 65 864
e 65 867
e 65 902
e 66 565
e 66 668
e 66 678
e 67 596
e 67 647
e 67 720
e 67 792
e 68 514
e 68 543
e 68 614
e 68 699
e 68 887
e 68 947
e 68 968
e 69 512
e 69 519
e 69 643
e 69 683
e 69 689
e 69 696
e 69 736
e 69 832
e 69 863
e 69 951
e 70 716
e 70 823
e 70 863
e 70 932
e 71 701
e 71 968
e 72 566
e 72 768
e 72 931
e 72 940
e 73 568
e 73 589
e 73 597
e 73 599
e 73 667
e 73 764
e 73 888
e 74 565
e 74 779
e 74 834
e 74 965
e 75 662
e 75 737
e 75 795
e 75 858
e 75 895
e 76 606
e 76 617
e 76 661
e 76 734
e 76 747
e 76 944
e 77 570
e 77 635
e 77 641
e 77 670
e 77 674
e 77 962
e 78 689
e 78 747
e 78 778
e 78 837
e 78 903
e 78 907
e 78 954
e 79 647
e 79 663
e 79 724
e 79 789
e 79 810
e 80 695
e 80 744
e 80 888
e 81 654
e 81 868
e 81 925
e 82 522
e 82 645
e 82 690
e 82 766
e 82 819
e 82 857
e 82 890
e 83 544
e 83 555
e 83 707
e 83 715
e 83 729
e 83 856
e 83 857
e 84 599
e 84 767
e 84 885
e 84 956
e 85 693
e 85 694
e 85 768
e 85 947
e 85 986
e 86 615
e 86 696
e 86 713
e 86 728
e 86 801
e 86 982
e 87 609
e 87 626
e 87 689
e 87 693
e 87 769
e 87 851
e 87 853
e 87 873
e 87 966
e 88 509
e 88 547
e 88 683
e 88 730
e 88 751
e 88 810
e 88 880
e 89 556
e 89 725
e 90 627
e 90 644
e 90 907
e 90 984
e 91 650
e 91 664
e 91 750
e 91 777
e 91 942
e 92 931
e 93 581
e 93 630
e 93 680
e 93 835
e 93 868
e 93 870
e 93 939
e 94 508
e 94 570
e 94 752
e 94 916
e 95 532
e 95 549
e 95 623
e 95 986
e 96 559
e 96 581
e 96 708
e 96 727
e 96 791
e 96 963
e 97 661
e 97 666
e 97 667
e 97 850
e 97 885
e 97 917
e 97 940
e 97 953
e 98 871
e 98 994
e 99 838
e 100 516
e 100 731
e 100 827
e 101 636
e 101 669
e 101 694
e 101 711
e 102 650
e 102 694
e 102 919
e 103 696
e 103 796
e 104 733
e 104 736
e 104 867
e 104 885
e 104 923
e 104 936
e 104 944
e 104 958
e 105 525
e 105 541
e 105 932
e 105 942
e 105 972
e 105 996
e 106 517
e 106 920
e 107 528
e 107 597
e 107 784
e 107 858
e 107 996
e 108 587
e 108 625
e 108 659
e 108 724
e 108 811
e 108 838
e 108 850
e 108 984
e 108 995
e 109 510
e 109 605
e 109 669
e 109 674
e 109 692
e 109 745
e 109 827
e 109 929
e 109 987
e 110 616
e 110 687
e 110 862
e 111 756
e 111 780
e 111 788
e 111 806
e 111 863
e 111 915
e 111 949
e 112 893
e 112 900
e 113 530
e 113 757
e 113 814
e 113 983
e 113 986
e 114 637
e 115 507
e 115 519
e 115 665
e 115 667
e 115 715
e 115 741
e 115 748
e 115 912
e 115 988
e 115 999
e 116 530
e 116 534
e 116 765
e 116 857
e 116 958
e 117 509
e 117 567
e 117 635
e 117 663
e 117 751
e 117 767
e 117 970
e 117 986
e 117 996
e 118 707
e 118 790
e 118 939
e 119 640
e 119 654
e 119 660
e 119 877
e 119 894
e 119 925
e 120 529
e 120 584
e 121 579
e 121 629
e 121 656
e 121 671
e 122 536
e 122 597
e 122 810
e 122 899
e 122 941
e 122 954
e 123 523
e 123 544
e 123 663
e 123 949
e 124 594
e 124 709
e 124 839
e 124 860
e 124 983
e 124 985
e 125 522
e 125 621
e 125 720
e 125 775
e 125 835
e 125 878
e 126 533
e 126 552
e 126 693
e 126 866
e 126 872
e 126 877
e 126 912
e 126 991
e 127 523
e 127 631
e 127 657
e 127 710
e 127 829
e 128 764
e 128 860
e 128 895
e 129 630
e 129 960
e 130 566
e 130 820
e 132 534
e 132 676
e 132 731
e 132 811
e 132 903
e 133 645
e 133 813
e 134 505
e 134 546
e 134 630
e 134 714
e 134 904
e 135 503
e 135 558
e 135 673
e 135 713
e 135 743
e 135 938
e 136 604
e 136 669
e 136 852
e 136 975
e 137 927
e 138 731
e 138 897
e 139 540
e 139 597
e 139 838
e 139 888
e 139 941
e 140 588
e 140 599
e 140 640
e 140 781
e 140 920
e 140 954
e 140 967
e 140 975
e 140 986
e 141 845
e 141 981
e 141 983
e 142 543
e 142 545
e 142 638
e 142 906
e 143 630
e 143 707
e 143 755
e 143 998
e 144 537
e 144 656
e 144 723
e 144 826
e 144 849
e 144 868
e 144 927
e 145 595
e 145 629
e 145 707
e 145 729
e 145 881
e 145 907
e 145 955
e 146 517
e 146 521
e 146 526
e 146 543
e 146 680
e 146 696
e 146 781
e 146 844
e 146 928
e 146 976
e 147 574
e 147 657
e 147 853
e 148 655
e 148 688
e 148 754
e 148 936
e 148 969
e 149 523
e 149 613
e 149 840
e 149 974
e 150 676
e 150 723
e 150 743
e 151 566
e 151 703
e 151 787
e 151 933
e 151 970
e 152 572
e 152 860
e 152 891
e 152 955
e 153 548
e 153 564
e 153 589
e 153 755
e 153 806
e 153 817
e 153 870
e 153 929
e 153 941
e 153 976
e 154 527
e 154 531
e 154 591
e 154 683
e 154 843
e 154 881
e 154 956
e 155 504
e 155 533
e 155 593
e 155 925
e 156 808
e 157 539
e 157 659
e 157 792
e 157 916
e 157 962
e 158 592
e 158 718
e 158 733
e 158 850
e 158 974
e 158 994
e 159 574
e 159 603
e 159 728
e 159 798
e 159 863
e 160 572
e 160 703
e 160 887
e 161 779
e 161 787
e 161 811
e 161 827
e 162 534
e 162 564
e 162 603
e 162 624
e 162 680
e 162 735
e 162 756
e 162 883
e 162 953
e 163 518
e 163 572
e 163 627
e 163 769
e 164 677
e 164 810
e 165 570
e 165 808
e 165 865
e 165 885
e 166 803
e 166 875
e 167 590
e 167 847
e 167 863
e 167 872
e 167 968
e 168 569
e 168 640
e 168 716
e 168 720
e 168 739
e 168 811
e 169 635
e 169 637
e 169 641
e 169 698
e 169 723
e 169 922
e 169 996
e 170 865
e 170 902
e 170 914
e 171 666
e 171 680
e 171 761
e 172 529
e 172 717
e 172 859
e 172 1000
e 173 515
e 173 524
e 173 608
e 173 688
e 173 787
e 173 803
e 174 676
e 174 773
e 174 881
e 174 890
e 174 946
e 175 596
e 175 674
e 175 715
e 175 751
e 175 764
e 175 839
e 175 891
e 175 898
e 176 530
e 176 592
e 176 684
e 176 803
e 176 823
e 176 890
e 176 981
e 177 712
e 177 805
e 177 970
e 178 525
e 178 582
e 178 673
e 178 701
e 178 938
e 179 533
e 179 776
e 179 905
e 179 938
e 180 611
e 180 695
e 180 907
e 181 580
e 181 802
e 181 980
e 182 573
e 182 593
e 182 642
e 182 857
e 184 538
e 184 771
e 184 803
e 184 876
e 184 894
e 185 548
e 185 586
e 185 629
e 185 662
e 185 932
e 185 975
e 186 541
e 186 602
e 186 841
e 186 846
e 186 906
e 187 504
e 187 517
e 187 537
e 187 615
e 187 643
e 187 659
e 187 714
e 187 947
e 187 966
e 188 514
e 188 588
e 188 598
e 188 675
e 188 676
e 188 868
e 189 537
e 189 614
e 189 687
e 189 852
e 189 881
e 190 515
e 190 711
e 190 789
e 190 825
e 190 926
e 191 566
e 191 686
e 191 687
e 191 698
e 191 745
e 191 792
e 191 871
e 192 506
e 192 667
e 192 807
e 192 865
e 192 916
e 192 977
e 193 550
e 193 561
e 193 580
e 193 623
e 193 637
e 193 663
e 193 809
e 193 982
e 193 992
e 194 529
e 194 539
e 194 650
e 194 665
e 194 854
e 194 1000
e 195 624
e 195 647
e 195 823
e 195 928
e 196 616
e 196 640
e 196 841
e 196 980
e 197 504
e 197 591
e 197 652
e 197 699
e 197 798
e 198 635
e 198 734
e 198 775
e 198 951
e 199 579
e 199 624
e 199 691
e 199 694
e 199 795
e 199 911
e 199 949
e 200 568
e 200 570
e 200 782
e 201 539
e 201 558
e 201 744
e 201 894
e 201 993
e 202 527
e 202 822
e 203 624
e 203 704
e 204 580
e 204 806
e 204 916
e 204 935
e 205 542
e 205 622
e 205 702
e 205 792
e 205 795
e 205 809
e 205 894
e 206 577
e 206 799
e 206 840
e 206 842
e 206 928
e 207 647
e 207 787
e 207 812
e 207 875
e 207 886
e 208 513
e 208 685
e 208 854
e 208 953
e 209 565
e 209 612
e 209 852
e 209 909
e 209 989
e 210 639
e 210 720
e 210 827
e 210 851
e 210 974
e 211 722
e 211 740
e 211 753
e 211 756
e 211 860
e 211 984
e 212 535
e 212 689
e 212 789
e 212 809
e 212 980
e 213 629
e 213 642
e 213 679
e 213 804
e 213 837
e 213 897
e 214 542
e 214 668
e 214 716
e 214 777
e 214 851
e 215 692
e 215 824
e 216 549
e 216 556
e 216 604
e 216 703
e 216 804
e 217 512
e 217 530
e 217 655
e 217 691
e 217 774
e 217 991
e 218 513
e 218 530
e 218 629
e 218 672
e 218 696
e 218 770
e 218 795
e 218 829
e 219 652
e 219 654
e 219 664
e 219 689
e 219 922
e 220 505
e 220 543
e 220 621
e 220 656
e 220 768
e 220 833
e 220 877
e 221 505
e 221 563
e 221 842
e 221 929
e 221 956
e 221 978
e 221 982
e 222 686
e 222 715
e 222 720
e 222 934
e 223 759
e 223 810
e 224 637
e 224 660
e 224 958
e 225 516
e 225 656
e 225 865
e 225 897
e 225 997
e 226 591
e 226 664
e 226 783
e 226 879
e 226 923
e 226 963
e 226 995
e 227 617
e 227 634
e 227 724
e 227 798
e 227 827
e 227 943
e 227 966
e 227 967
e 228 549
e 228 593
e 228 722
e 228 757
e 228 822
e 228 934
e 228 984
e 229 504
e 229 634
e 229 682
e 229 757
e 229 864
e 229 896
e 229 928
e 230 501
e 230 589
e 230 674
e 230 747
e 230 790
e 230 793
e 230 863
e 231 932
e 231 943
e 232 771
e 232 830
e 232 878
e 233 666
e 233 807
e 234 689
e 234 694
e 234 817
e 234 879
e 235 609
e 235 676
e 235 707
e 235 826
e 236 506
e 236 850
e 236 919
e 237 672
e 237 742
e 237 856
e 238 518
e 238 583
e 238 595
e 238 703
e 238 771
e 239 515
e 239 560
e 239 588
e 239 709
e 239 845
e 239 866
e 239 969
e 239 990
e 240 784
e 240 866
e 240 876
e 240 878
e 240 946
e 241 516
e 241 561
e 241 574
e 241 640
e 241 690
e 241 798
e 241 813
e 241 921
e 241 988
e 242 598
e 242 671
e 242 863
e 242 871
e 242 894
e 243 960
e 243 975
e 244 673
e 244 879
e 245 555
e 245 753
e 245 830
e 245 905
e 246 518
e 246 527
e 246 841
e 246 871
e 247 691
e 247 961
e 248 754
e 248 959
e 248 996
e 249 523
e 249 838
e 249 850
e 249 867
e 249 927
e 250 573
e 250 772
e 250 805
e 250 816
e 250 908
e 250 914
e 250 965
e 251 544
e 251 551
e 251 572
e 251 597
e 251 915
e 252 526
e 252 542
e 252 583
e 252 690
e 252 879
e 252 920
e 252 923
e 252 927
e 252 995
e 253 727
e 253 750
e 253 809
e 253 846
e 253 860
e 254 504
e 254 666
e 254 679
e 254 716
e 254 877
e 254 884
e 254 969
e 255 657
e 255 766
e 255 797
e 255 828
e 255 862
e 255 927
e 255 955
e 256 517
e 256 560
e 256 689
e 256 808
e 256 950
e 257 601
e 257 604
e 257 668
e 257 764
e 257 775
e 257 783
e 257 817
e 257 858
e 258 637
e 258 699
e 258 726
e 258 761
e 258 873
e 259 541
e 259 544
e 259 595
e 259 783
e 259 930
e 259 990
e 260 509
e 260 587
e 260 696
e 260 711
e 260 752
e 260 953
e 261 654
e 261 829
e 261 975
e 262 614
e 262 753
e 262 856
e 262 890
e 262 948
e 263 536
e 263 588
e 263 598
e 263 726
e 263 742
e 263 903
e 264 641
e 264 815
e 264 898
e 264 933
e 265 565
e 265 651
e 266 533
e 266 534
e 266 651
e 266 750
e 266 829
e 267 581
e 267 640
e 267 825
e 267 889
e 267 900
e 267 913
e 267 941
e 267 978
e 267 990
e 268 527
e 268 548
e 268 549
e 268 586
e 268 592
e 268 676
e 268 714
e 268 855
e 268 860
e 268 877
e 268 892
e 269 580
e 269 731
e 270 543
e 270 858
e 271 522
e 271 556
e 271 561
e 271 604
e 271 822
e 271 853
e 271 909
e 271 968
e 272 507
e 272 521
e 272 538
e 272 575
e 273 704
e 273 775
e 273 836
e 273 900
e 273 917
e 273 957
e 274 502
e 274 702
e 274 751
e 275 606
e 275 623
e 275 643
e 275 658
e 275 737
e 275 832
e 275 833
e 275 894
e 276 524
e 276 629
e 276 653
e 276 709
e 276 814
e 276 935
e 276 965
e 277 526
e 277 549
e 277 564
e 277 589
e 277 700
e 277 763
e 277 845
e 278 755
e 278 910
e 279 582
e 279 784
e 279 907
e 280 645
e 280 750
e 280 992
e 281 812
e 281 917
e 282 612
e 282 701
e 283 768
e 283 809
e 283 907
e 283 937
e 283 983
e 283 992
e 284 513
e 284 621
e 284 640
e 284 673
e 284 704
e 284 728
e 284 747
e 284 776
e 284 811
e 284 872
e 285 502
e 285 809
e 285 922
e 286 502
e 286 651
e 286 682
e 286 686
e 286 755
e 286 809
e 286 832
e 287 508
e 287 694
e 287 738
e 287 871
e 288 557
e 288 623
e 288 686
e 288 724
e 288 925
e 289 603
e 289 693
e 289 786
e 289 915
e 289 998
e 289 999
e 290 514
e 290 568
e 290 596
e 290 621
e 290 948
e 290 953
e 290 986
e 291 511
e 291 534
e 291 588
e 291 908
e 291 938
e 291 975
e 292 517
e 292 577
e 292 617
e 292 645
e 292 741
e 292 895
e 293 514
e 293 549
e 293 598
e 293 647
e 293 706
e 293 808
e 293 822
e 293 918
e 294 712
e 294 778
e 294 933
e 294 978
e 295 690
e 295 835
e 295 897
e 295 976
e 296 669
e 296 747
e 297 652
e 297 737
e 297 747
e 297 793
e 297 944
e 298 547
e 298 975
e 299 580
e 299 834
e 300 518
e 300 673
e 300 991
e 301 512
e 301 553
e 301 570
e 301 619
e 301 620
e 301 651
e 301 655
e 301 677
e 301 680
e 301 709
e 301 737
e 301 743
e 302 537
e 302 622
e 302 850
e 302 954
e 303 510
e 303 649
e 303 654
e 303 804
e 303 834
e 303 849
e 303 893
e 303 906
e 303 930
e 304 600
e 304 663
e 304 694
e 304 726
e 304 824
e 304 894
e 304 955
e 304 973
e 305 566
e 305 647
e 305 844
e 306 607
e 306 662
e 306 679
e 306 769
e 306 782
e 306 879
e 307 505
e 307 541
e 307 566
e 307 599
e 307 645
e 307 828
e 307 871
e 307 942
e 308 573
e 308 619
e 308 673
e 308 778
e 308 944
e 308 981
e 308 987
e 309 774
e 309 986
e 309 988
e 310 581
e 311 510
e 311 554
e 311 580
e 311 631
e 311 654
e 311 798
e 311 841
e 312 528
e 312 622
e 312 647
e 313 538
e 313 862
e 313 926
e 313 976
e 314 542
e 314 743
e 314 971
e 315 560
e 315 699
e 315 704
e 315 846
e 315 922
e 315 983
e 316 584
e 316 625
e 316 662
e 316 671
e 316 680
e 316 777
e 316 807
e 316 953
e 317 504
e 317 615
e 317 619
e 318 648
e 318 775
e 318 791
e 319 747
e 319 749
e 320 595
e 320 652
e 320 741
e 320 908
e 320 921
e 320 933
e 321 659
e 321 675
e 321 708
e 321 730
e 321 776
e 321 797
e 321 910
e 321 950
e 321 979
e 322 620
e 322 785
e 322 985
e 323 542
e 323 593
e 323 689
e 323 729
e 323 744
e 323 798
e 323 806
e 323 910
e 323 928
e 324 681
e 324 727
e 324 851
e 324 911
e 325 609
e 325 616
e 325 699
e 325 714
e 325 897
e 325 921
e 326 658
e 326 758
e 326 803
e 327 602
e 327 641
e 327 684
e 327 900
e 327 943
e 327 997
e 328 531
e 328 572
e 328 674
e 328 738
e 328 860
e 328 888
e 328 986
e 329 716
e 329 782
e 330 633
e 330 714
e 330 729
e 330 742
e 330 845
e 330 875
e 330 988
e 331 559
e 331 561
e 331 607
e 331 616
e 331 767
e 331 806
e 331 864
e 331 943
e 331 961
e 332 726
e 333 514
e 333 541
e 333 553
e 333 565
e 333 613
e 333 627
e 333 789
e 334 576
e 334 633
e 334 679
e 334 700
e 334 754
e 334 875
e 334 914
e 335 514
e 335 723
e 335 793
e 335 903
e 336 619
e 336 620
e 336 645
e 336 689
e 336 797
e 336 813
e 336 827
e 336 853
e 336 984
e 337 552
e 337 620
e 337 622
e 337 656
e 337 707
e 337 717
e 337 810
e 337 912
e 337 939
e 337 959
e 337 978
e 338 542
e 338 629
e 338 631
e 338 721
e 339 504
e 339 720
e 339 763
e 339 966
e 340 508
e 340 617
e 340 761
e 340 776
e 340 847
e 341 552
e 341 561
e 341 590
e 341 767
e 341 809
e 341 821
e 341 852
e 341 907
e 341 966
e 342 620
e 342 690
e 342 837
e 342 901
e 342 922
e 343 633
e 343 678
e 343 770
e 343 841
e 343 873
e 344 530
e 344 632
e 344 772
e 344 957
e 345 590
e 345 610
e 345 647
e 345 731
e 345 916
e 345 959
e 345 990
e 346 523
e 346 585
e 346 722
e 346 883
e 346 952
e 347 502
e 347 615
e 347 660
e 347 761
e 348 658
e 348 669
e 348 700
e 348 867
e 348 885
e 349 566
e 349 574
e 349 826
e 349 852
e 349 919
e 349 984
e 349 994
e 350 541
e 350 566
e 350 716
e 350 890
e 350 984
e 351 501
e 351 504
e 351 543
e 351 550
e 351 789
e 352 642
e 352 749
e 352 769
e 352 886
e 352 940
e 352 975
e 353 715
e 353 843
e 354 635
e 354 828
e 354 845
e 354 903
e 354 928
e 354 1000
e 355 655
e 355 714
e 355 870
e 355 993
e 356 771
e 356 875
e 356 971
e 357 664
e 357 722
e 357 998
e 358 569
e 358 627
e 358 873
e 358 897
e 358 924
e 359 660
e 359 661
e 359 723
e 359 846
e 359 860
e 359 982
e 359 990
e 360 512
e 360 708
e 360 928
e 360 999
e 361 538
e 361 664
e 361 675
e 361 705
e 361 803
e 361 840
e 361 889
e 361 993
e 362 516
e 362 671
e 362 775
e 362 831
e 363 524
e 363 532
e 363 593
e 363 792
e 364 548
e 364 694
e 364 883
e 364 906
e 364 923
e 364 929
e 364 942
e 364 945
e 365 529
e 365 794
e 365 821
e 366 618
e 366 681
e 366 696
e 366 937
e 366 989
e 367 640
e 367 688
e 367 692
e 367 802
e 367 991
e 368 661
e 368 687
e 368 698
e 368 890
e 369 736
e 369 772
e 370 585
e 370 732
e 370 801
e 371 702
e 371 776
e 372 549
e 373 522
e 373 584
e 373 640
e 373 678
e 373 882
e 374 612
e 374 633
e 374 838
e 374 887
e 374 895
e 375 508
e 375 589
e 375 656
e 375 696
e 375 762
e 375 764
e 375 820
e 375 954
e 375 989
e 376 689
e 376 767
e 376 912
e 377 839
e 377 853
e 377 857
e 378 517
e 378 521
e 378 694
e 378 733
e 378 758
e 378 943
e 378 988
e 379 538
e 379 595
e 379 728
e 379 757
e 379 776
e 380 547
e 380 856
e 381 556
e 381 677
e 381 762
e 382 539
e 382 551
e 382 757
e 382 876
e 382 984
e 383 614
e 384 507
e 384 514
e 384 655
e 384 697
e 384 717
e 385 638
e 385 640
e 385 771
e 385 897
e 385 964
e 386 721
e 386 732
e 386 818
e 386 854
e 386 882
e 387 615
e 387 647
e 387 770
e 387 955
e 388 536
e 388 833
e 388 899
e 389 573
e 389 694
e 389 730
e 389 904
e 389 918
e 389 950
e 390 519
e 390 628
e 390 672
e 390 678
e 390 699
e 390 804
e 390 823
e 390 852
e 390 864
e 390 955
e 390 978
e 391 644
e 391 709
e 391 762
e 391 827
e 391 845
e 392 524
e 392 545
e 392 613
e 392 966
e 393 501
e 393 654
e 393 667
e 393 694
e 393 704
e 393 793
e 393 860
e 393 899
e 393 941
e 394 860
e 394 869
e 394 916
e 394 975
e 395 513
e 395 635
e 395 726
e 395 740
e 395 954
e 396 506
e 396 507
e 396 723
e 396 914
e 396 944
e 397 553
e 397 666
e 397 726
e 397 728
e 397 813
e 397 835
e 397 889
e 398 533
e 398 558
e 398 563
e 398 567
e 398 750
e 398 948
e 398 981
e 399 914
e 399 970
e 400 684
e 400 715
e 400 739
e 400 953
e 400 985
e 400 991
e 401 547
e 401 571
e 401 679
e 401 735
e 401 812
e 402 602
e 402 606
e 402 619
e 402 624
e 402 634
e 402 674
e 402 892
e 402 996
e 403 654
e 403 707
e 403 731
e 403 996
e 404 979
e 405 550
e 405 655
e 405 800
e 405 854
e 405 904
e 405 917
e 406 502
e 406 720
e 406 752
e 406 946
e 406 990
e 407 574
e 407 680
e 407 725
e 407 968
e 408 650
e 408 738
e 408 810
e 408 826
e 408 844
e 409 902
e 410 561
e 410 617
e 410 791
e 410 977
e 411 580
e 411 635
e 411 745
e 411 964
e 411 996
e 411 998
e 412 696
e 412 707
e 412 772
e 412 936
e 412 958
e 412 988
e 413 511
e 413 624
e 413 728
e 413 893
e 413 950
e 413 967
e 413 976
e 414 539
e 414 556
e 414 684
e 414 723
e 414 810
e 414 923
e 415 537
e 415 799
e 415 834
e 415 874
e 415 882
e 415 896
e 416 573
e 416 916
e 417 532
e 417 614
e 417 939
e 418 530
e 418 571
e 419 513
e 419 552
e 419 588
e 419 592
e 419 626
e 419 630
e 419 730
e 419 915
e 420 627
e 420 642
e 420 747
e 420 812
e 420 856
e 420 862
e 420 978
e 421 555
e 421 620
e 421 650
e 421 881
e 421 908
e 421 938
e 422 527
e 422 630
e 422 710
e 422 722
e 422 870
e 422 966
e 423 571
e 423 601
e 423 615
e 423 628
e 423 652
e 423 654
e 423 700
e 423 749
e 423 794
e 423 910
e 424 702
e 424 731
e 424 761
e 424 823
e 425 514
e 425 774
e 425 836
e 425 895
e 426 747
e 426 832
e 426 858
e 426 880
e 427 623
e 427 675
e 427 778
e 427 825
e 427 832
e 427 866
e 428 643
e 428 702
e 428 824
e 428 833
e 428 916
e 429 561
e 429 562
e 429 664
e 429 746
e 429 804
e 429 863
e 429 960
e 430 704
e 431 706
e 431 804
e 431 951
e 431 952
e 431 991
e 432 633
e 432 640
e 432 937
e 432 958
e 433 508
e 433 568
e 433 670
e 433 684
e 433 740
e 433 886
e 434 554
e 435 515
e 435 541
e 435 784
e 435 826
e 435 885
e 435 904
e 435 989
e 436 911
e 436 956
e 437 516
e 437 545
e 437 602
e 437 653
e 437 803
e 437 805
e 437 950
e 437 994
e 438 596
e 438 687
e 438 693
e 438 766
e 438 877
e 438 880
e 439 827
e 439 947
e 440 603
e 440 649
e 440 724
e 440 844
e 440 882
e 441 703
e 441 819
e 441 968
e 442 580
e 442 642
e 442 701
e 442 810
e 442 831
e 442 910
e 443 610
e 443 726
e 443 799
e 443 816
e 443 846
e 443 857
e 443 938
e 443 978
e 444 623
e 444 694
e 444 791
e 444 921
e 445 570
e 445 646
e 445 747
e 445 762
e 445 787
e 445 850
e 445 871
e 446 678
e 446 712
e 446 771
e 446 840
e 446 952
e 446 959
e 447 611
e 447 724
e 447 773
e 447 821
e 447 932
e 447 951
e 448 582
e 448 634
e 448 687
e 448 760
e 448 962
e 449 625
e 449 665
e 449 709
e 449 885
e 449 945
e 449 995
e 451 582
e 451 780
e 451 960
e 452 572
e 452 870
e 452 900
e 452 959
e 452 979
e 453 524
e 453 542
e 453 631
e 453 955
e 454 600
e 454 615
e 454 822
e 454 831
e 454 931
e 454 964
e 455 731
e 455 838
e 455 866
e 455 939
e 455 955
e 455 992
e 456 535
e 456 557
e 456 558
e 456 605
e 456 910
e 456 996
e 457 514
e 457 608
e 457 641
e 457 686
e 457 827
e 457 921
e 458 590
e 458 620
e 458 758
e 458 905
e 458 930
e 459 578
e 459 623
e 459 690
e 459 735
e 459 843
e 459 896
e 460 662
e 460 677
e 460 705
e 460 724
e 460 738
e 461 542
e 461 577
e 461 636
e 461 702
e 461 782
e 462 521
e 462 585
e 463 618
e 463 786
e 463 855
e 463 973
e 464 622
e 464 658
e 464 667
e 464 687
e 464 888
e 465 710
e 465 783
e 465 787
e 465 795
e 465 850
e 465 860
e 465 971
e 465 989
e 466 606
e 466 671
e 466 805
e 466 875
e 466 881
e 466 888
e 466 974
e 467 524
e 467 692
e 467 746
e 467 779
e 467 782
e 467 842
e 467 971
e 468 536
e 468 689
e 468 731
e 468 782
e 468 827
e 468 990
e 469 514
e 469 521
e 469 575
e 469 580
e 469 640
e 469 757
e 469 781
e 469 847
e 469 854
e 469 913
e 470 587
e 470 647
e 470 701
e 470 821
e 471 549
e 471 716
e 471 964
e 472 828
e 472 852
e 472 857
e 472 902
e 472 965
e 473 518
e 473 558
e 473 590
e 473 605
e 473 917
e 473 963
e 474 761
e 474 816
e 474 992
e 475 981
e 476 541
e 476 767
e 476 813
e 476 903
e 476 940
e 477 530
e 477 622
e 477 724
e 477 731
e 477 772
e 477 783
e 477 894
e 477 953
e 478 657
e 478 671
e 478 685
e 478 750
e 478 884
e 478 889
e 478 978
e 479 746
e 479 923
e 479 932
e 480 591
e 480 759
e 480 765
e 481 559
e 481 587
e 481 648
e 481 657
e 481 664
e 481 711
e 481 749
e 481 847
e 482 578
e 482 757
e 482 815
e 482 844
e 482 870
e 482 918
e 482 931
e 482 998
e 483 541
e 483 550
e 483 597
e 483 734
e 484 538
e 484 626
e 484 660
e 484 670
e 484 747
e 484 876
e 485 504
e 485 703
e 485 834
e 485 958
e 486 523
e 486 670
e 486 730
e 486 739
e 486 799
e 486 846
e 486 877
e 486 981
e 487 517
e 487 538
e 487 719
e 487 830
e 487 888
e 488 919
e 488 920
e 489 546
e 489 662
e 489 836
e 489 864
e 489 903
e 489 952
e 489 955
e 490 531
e 490 590
e 490 825
e 490 847
e 491 501
e 491 600
e 491 744
e 491 826
e 491 847
e 492 523
e 492 661
e 492 781
e 492 825
e 492 940
e 493 590
e 493 695
e 493 722
e 493 778
e 493 793
e 493 891
e 493 896
e 493 922
e 494 603
e 494 679
e 494 703
e 494 719
e 494 822
e 494 998
e 495 531
e 495 558
e 495 572
e 495 671
e 495 732
e 495 882
e 495 939
e 495 943
e 496 507
e 496 545
e 496 579
e 496 582
e 496 619
e 496 731
e 496 778
e 496 846
e 496 914
e 496 953
e 496 961
e 497 571
e 497 675
e 497 843
e 497 846
e 497 853
e 497 903
e 498 565
e 498 723
e 498 775
e 498 886
e 498 904
e 498 939
e 499 518
e 499 672
e 499 673
e 499 709
e 499 833
e 499 961
e 500 508
e 500 956
